
Gurobi 6.5.2 (linux64) logging started Mon Aug 29 10:57:51 2016

Optimize a model with 41 rows, 77 columns and 175 nonzeros
Coefficient statistics:
  Matrix range    [1e+00, 2e+00]
  Objective range [8e+00, 1e+02]
  Bounds range    [1e+00, 1e+00]
  RHS range       [1e+00, 1e+00]
Found heuristic solution: objective 1164
Presolve removed 14 rows and 7 columns
Presolve time: 0.00s
Presolved: 27 rows, 70 columns, 146 nonzeros
Variable types: 0 continuous, 70 integer (70 binary)

Root relaxation: objective 6.520000e+02, 24 iterations, 0.00 seconds

    Nodes    |    Current Node    |     Objective Bounds      |     Work
 Expl Unexpl |  Obj  Depth IntInf | Incumbent    BestBd   Gap | It/Node Time

     0     0  652.00000    0    4 1164.00000  652.00000  44.0%     -    0s
H    0     0                     965.0000000  652.00000  32.4%     -    0s
H    0     0                     752.0000000  652.00000  13.3%     -    0s
H    0     0                     705.0000000  652.00000  7.52%     -    0s
H    0     0                     703.0000000  652.00000  7.25%     -    0s
     0     0     cutoff    0       703.00000  702.00070  0.14%     -    0s

Cutting planes:
  Gomory: 3
  Cover: 5

Explored 0 nodes (31 simplex iterations) in 0.00 seconds
Thread count was 8 (of 8 available processors)

Optimal solution found (tolerance 1.00e-04)
Best objective 7.030000000000e+02, best bound 7.030000000000e+02, gap 0.0%
